5
22
52
40	20
1	3	5	6	13	4	19	3	
2	1	10	3	
3	1	8	2	
4	5	13	2	9	3	10	6	14	4	11	3	
5	3	4	2	12	3	10	2	
6	1	5	2	
7	1	11	3	
8	3	5	11	10	6	5	4	
9	2	7	5	7	2	
10	1	4	6	
11	4	5	2	5	4	5	4	9	3	
12	1	5	4	
13	1	8	10	
14	1	20	4	
15	4	6	4	5	11	6	10	6	6	
16	2	8	2	7	3	
17	2	5	6	15	3	
18	4	4	5	4	7	8	3	20	3	
19	3	7	2	6	3	5	3	
20	1	6	10	
21	5	7	4	6	5	18	4	12	4	6	6	
22	3	8	4	11	3	7	6	
